
List of user-set options:

                                    Name   Value                used
                           compl_inf_tol = 1                     yes
                         constr_viol_tol = 1                     yes
                            dual_inf_tol = 1000                  yes
                           linear_solver = ma97                  yes
                              ma86_small = 1e-30                  no
                                  ma86_u = 0.0001                 no
                              ma97_order = best                  yes
                              ma97_small = 1e-30                 yes
                            ma97_switch1 = at_start              yes
                            ma97_switch2 = od_hd_reuse           yes
                                  ma97_u = 1e-06                 yes
                               ma97_umax = 0.5                   yes
                                max_iter = 1000                  yes
                    max_refinement_steps = 20                    yes
                    min_refinement_steps = 5                     yes
                                 mu_init = 1e-06                 yes
           mu_superlinear_decrease_power = 1.25                  yes
                   nlp_scaling_min_value = 1e-08                 yes
                        option_file_name = Preset_Case:_428_NCP.opt  yes
                             output_file = ./tmp/Preset_Case:_428_NCP.output  yes
                      print_user_options = yes                   yes
        required_infeasibility_reduction = 1                      no
                                     tol = 1e-08                 yes
                   warm_start_bound_frac = 1e-20                 yes
                   warm_start_bound_push = 1e-20                 yes
                   warm_start_init_point = yes                   yes
              warm_start_mult_bound_push = 1e-20                 yes
                warm_start_mult_init_max = 1e+40                 yes
             warm_start_slack_bound_frac = 1e-20                 yes
             warm_start_slack_bound_push = 1e-20                 yes

******************************************************************************
This program contains Ipopt, a library for large-scale nonlinear optimization.
 Ipopt is released as open source code under the Eclipse Public License (EPL).
         For more information visit http://projects.coin-or.org/Ipopt
******************************************************************************

This is Ipopt version 3.12.10, running with linear solver ma97.

Number of nonzeros in equality constraint Jacobian...:   117167
Number of nonzeros in inequality constraint Jacobian.:      213
Number of nonzeros in Lagrangian Hessian.............:    47513

Total number of variables............................:    29977
                     variables with only lower bounds:    11312
                variables with lower and upper bounds:    15135
                     variables with only upper bounds:        0
Total number of equality constraints.................:    29864
Total number of inequality constraints...............:       25
        inequality constraints with only lower bounds:        4
   inequality constraints with lower and upper bounds:        0
        inequality constraints with only upper bounds:       21

iter    objective    inf_pr   inf_du lg(mu)  ||d||  lg(rg) alpha_du alpha_pr  ls
   0 -1.7390659e-01 4.45e-01 2.00e+00  -6.0 0.00e+00    -  0.00e+00 0.00e+00   0
In iteration 0, 10 Slacks too small, adjusting variable bounds
   1 -1.7390659e-01 4.45e-01 1.15e+02  -6.0 1.11e+10    -  1.15e-14 8.83e-19h  1
   2 -1.7390592e-01 4.45e-01 5.04e+02  -6.0 5.43e+01    -  1.00e-02 1.99e-05f  1
   3 -1.7390347e-01 4.45e-01 5.03e+02  -6.0 6.94e+01    -  8.36e-03 9.07e-05h  1
   4 -1.7338604e-01 4.36e-01 4.94e+02  -6.0 5.69e+01    -  1.47e-02 1.99e-02h  1
   5 -1.7186279e-01 4.09e-01 4.70e+02  -6.0 6.15e+01    -  1.25e-02 6.27e-02h  1
   6 -1.6966028e-01 3.69e-01 5.80e+02  -6.0 5.02e+01    -  9.81e-03 9.56e-02h  1
   7 -1.6896170e-01 3.58e-01 5.83e+02  -6.0 5.25e+01    -  5.58e-02 3.12e-02h  1
   8 -1.6890248e-01 3.57e-01 5.82e+02  -6.0 5.03e+01    -  3.33e-02 2.86e-03h  1
   9 -1.6726612e-01 3.29e-01 8.98e+04  -6.0 5.70e+01    -  7.93e-03 7.91e-02h  3
iter    objective    inf_pr   inf_du lg(mu)  ||d||  lg(rg) alpha_du alpha_pr  ls
  10 -1.6715188e-01 3.27e-01 2.79e+05  -6.0 5.87e+01    -  2.40e-01 6.36e-03h  1
  11 -1.6579199e-01 3.02e-01 2.12e+05  -6.0 5.58e+01    -  2.88e-02 7.47e-02h  3
  12 -1.6371137e-01 2.63e-01 3.35e+05  -6.0 6.01e+01    -  2.56e-01 1.29e-01h  2
  13 -1.6186776e-01 2.25e-01 3.65e+05  -6.0 6.91e+01    -  2.06e-01 1.44e-01h  2
  14 -1.6086066e-01 2.01e-01 3.08e+05  -6.0 8.06e+01    -  9.27e-02 1.07e-01h  2
  15 -1.5995367e-01 1.83e-01 5.28e+05  -6.0 5.21e+01    -  2.69e-01 8.87e-02h  2
  16 -1.5865465e-01 1.85e-01 4.74e+05  -6.0 7.29e+01    -  1.61e-01 1.38e-01h  1
  17 -1.5767651e-01 1.77e-01 5.39e+05  -6.0 1.69e+02    -  1.50e-04 9.68e-02h  2
  18 -1.5743860e-01 1.77e-01 4.54e+05  -6.0 3.51e+02    -  3.14e-02 1.95e-02h  2
  19 -1.5716871e-01 1.78e-01 5.36e+05  -6.0 3.37e+02    -  3.91e-03 1.97e-02h  1
iter    objective    inf_pr   inf_du lg(mu)  ||d||  lg(rg) alpha_du alpha_pr  ls
  20 -1.5652940e-01 1.77e-01 4.85e+05  -6.0 2.31e+02    -  4.60e-02 3.81e-02h  3
  21 -1.5545365e-01 1.76e-01 5.37e+05  -6.0 1.66e+02    -  4.03e-02 7.49e-02h  1
  22 -1.5324605e-01 1.69e-01 5.29e+05  -6.0 9.16e+01    -  1.24e-01 2.09e-01h  2
  23 -1.4764176e-01 1.69e-01 6.55e+04  -6.0 3.89e+01    -  1.55e-01 6.66e-01H  1
  24 -1.4657088e-01 7.21e-02 1.57e+05  -6.0 1.28e+01    -  2.34e-01 5.62e-01h  1
  25 -1.4629523e-01 5.37e-02 2.24e+05  -6.0 6.28e+00    -  6.28e-01 2.80e-01h  1
  26 -1.4663117e-01 5.58e-02 1.11e+06  -6.0 6.23e+00    -  2.46e-01 7.49e-01F  1
  27r-1.4663117e-01 5.58e-02 1.00e+03  -1.8 0.00e+00    -  0.00e+00 4.76e-07R  2
  28r-1.4645392e-01 4.93e-02 1.00e+03  -1.8 1.10e+03    -  1.15e-04 1.16e-04f  1
  29 -1.4798988e-01 3.47e-03 4.46e+05  -6.0 6.75e+00    -  8.45e-01 1.00e+00h  1
iter    objective    inf_pr   inf_du lg(mu)  ||d||  lg(rg) alpha_du alpha_pr  ls
  30 -1.5196384e-01 2.05e-02 3.10e+05  -6.0 4.15e+01    -  2.85e-01 5.03e-01h  1
  31 -1.5494646e-01 4.10e-02 2.92e+05  -6.0 4.00e+01    -  3.18e-01 3.74e-01h  1
  32 -1.5885992e-01 2.26e-01 7.21e+05  -6.0 2.06e+01    -  1.06e-03 4.80e-01h  1
  33 -1.6103096e-01 2.23e-01 7.54e+05  -6.0 1.54e+01    -  1.29e-01 3.99e-01f  1
  34 -1.6176387e-01 2.12e-01 7.59e+05  -6.0 2.65e+01    -  1.73e-02 8.07e-02h  1
  35 -1.6824238e-01 8.74e-02 4.76e+05  -6.0 1.96e+01    -  5.32e-01 1.00e+00H  1
  36 -1.7303651e-01 5.88e-01 2.79e+05  -6.0 4.77e+01    -  4.14e-01 3.75e-01h  1
  37 -1.7425523e-01 6.59e-01 1.75e+05  -6.0 8.22e+01    -  3.73e-01 6.71e-02h  1
  38 -1.7769798e-01 1.76e+00 1.18e+05  -6.0 1.07e+02    -  3.23e-01 1.65e-01h  1
  39 -1.8768077e-01 2.59e+00 5.83e+04  -6.0 2.52e+02    -  5.07e-01 5.57e-01h  1
iter    objective    inf_pr   inf_du lg(mu)  ||d||  lg(rg) alpha_du alpha_pr  ls
  40 -1.8742750e-01 1.95e+00 5.81e+04  -6.0 2.31e+00  -4.0 4.07e-03 2.48e-01h  1
  41 -1.8999091e-01 2.02e+00 5.36e+04  -6.0 6.83e+02    -  7.63e-02 1.71e-01h  1
  42 -1.9009919e-01 2.00e+00 4.44e+04  -6.0 6.53e+02    -  1.72e-01 1.02e-02h  1
  43 -1.9125975e-01 1.79e+00 2.84e+04  -6.0 6.73e+02    -  3.61e-01 1.07e-01f  1
  44 -1.9295044e-01 1.50e+00 1.50e+04  -6.0 7.69e+02    -  4.73e-01 1.62e-01h  1
  45 -1.9621081e-01 1.47e+00 5.31e+03  -6.0 1.19e+03    -  6.45e-01 2.14e-01h  1
  46 -1.9614941e-01 1.27e+00 4.78e+03  -6.0 1.54e+00  -4.5 1.01e-01 1.40e-01h  1
  47 -1.9598477e-01 3.55e-01 1.57e+03  -6.0 1.57e+00  -5.0 6.72e-01 7.19e-01h  1
  48 -1.9603815e-01 8.66e-04 1.14e-01  -6.0 8.34e-01  -4.5 1.00e+00 1.00e+00h  1
  49 -1.9637985e-01 5.72e-03 1.16e+00  -6.0 4.63e+00  -5.0 4.42e-01 4.16e-01h  1
iter    objective    inf_pr   inf_du lg(mu)  ||d||  lg(rg) alpha_du alpha_pr  ls
  50 -1.9645223e-01 5.47e-03 3.18e+04  -6.0 3.80e+00  -5.5 1.00e+00 2.00e-01f  1
  51 -1.9721020e-01 7.57e-02 6.23e+03  -6.0 6.03e+00  -6.0 3.54e-01 6.20e-01f  1
  52 -1.9723624e-01 7.03e-02 1.65e+05  -6.0 1.47e+01  -6.4 1.96e-02 8.61e-02f  1
  53 -1.9780457e-01 4.20e-02 9.83e+04  -6.0 4.40e+01  -6.9 1.00e+00 4.04e-01f  1
  54 -1.9904194e-01 6.64e-02 5.02e+04  -6.0 1.31e+02  -7.4 4.31e-01 4.86e-01h  1
  55 -2.0305993e-01 1.05e+00 1.51e+04  -6.0 3.69e+02  -7.9 6.40e-01 6.94e-01h  1
  56 -2.0927720e-01 3.98e+00 7.30e+03  -6.0 9.06e+02  -8.3 2.86e-01 5.17e-01h  1
  57 -2.0950567e-01 3.77e+00 6.91e+03  -6.0 7.12e+02  -7.9 1.70e-01 5.38e-02h  1
  58 -2.0943720e-01 2.67e+00 4.89e+03  -6.0 2.30e+00  -4.8 1.26e-01 2.93e-01h  1
  59 -2.0934546e-01 1.11e+00 2.93e+03  -6.0 1.88e+00  -5.3 1.34e-01 5.85e-01h  1
iter    objective    inf_pr   inf_du lg(mu)  ||d||  lg(rg) alpha_du alpha_pr  ls
  60 -2.0930418e-01 2.55e-01 7.03e+02  -6.0 6.53e-01  -4.8 7.63e-01 7.70e-01h  1
  61 -2.0935498e-01 6.38e-02 2.21e+02  -6.0 3.04e+00  -5.3 6.44e-01 7.50e-01h  1
  62 -2.0976007e-01 7.19e-01 7.23e+01  -6.0 1.82e+01  -5.8 6.71e-01 6.75e-01h  1
  63 -2.0992358e-01 1.70e-01 3.82e+01  -6.0 8.12e+00  -6.3 5.17e-01 1.00e+00h  1
  64 -2.1011864e-01 2.59e-01 4.95e+00  -6.0 8.73e+00  -5.8 1.00e+00 1.00e+00h  1
  65 -2.1022182e-01 2.11e-01 3.75e+00  -6.0 1.07e+01  -6.3 5.09e-01 2.27e-01h  1
  66 -2.1119474e-01 1.15e+00 2.31e+00  -6.0 4.60e+01  -6.8 1.00e+00 1.00e+00f  1
  67 -2.1328514e-01 3.81e+00 1.01e+01  -6.0 3.09e+02  -7.3 1.94e-01 3.86e-01h  1
  68 -2.1475159e-01 3.74e+00 8.70e+00  -6.0 2.79e+03  -7.7 9.66e-02 4.84e-02h  1
  69 -2.1528910e-01 2.22e+00 5.03e+00  -6.0 9.49e+01  -7.3 3.79e-01 4.08e-01h  1
iter    objective    inf_pr   inf_du lg(mu)  ||d||  lg(rg) alpha_du alpha_pr  ls
  70 -2.1641313e-01 2.95e+00 6.06e+00  -6.0 1.23e+03  -7.8 6.81e-02 9.14e-02h  1
  71 -2.1735760e-01 3.00e+00 5.80e+00  -6.0 2.92e+02  -7.4 1.67e-01 2.25e-01h  1
  72 -2.1967865e-01 8.65e-01 5.01e+00  -6.0 2.34e+02  -7.9 7.78e-01 8.65e-01h  1
  73 -2.2436166e-01 3.44e+00 1.23e+01  -6.0 5.61e+02  -8.3 4.67e-01 7.98e-01h  1
  74 -2.2511342e-01 2.21e+00 5.19e+01  -6.0 1.91e+02  -7.9 4.98e-01 3.84e-01h  1
  75 -2.2646991e-01 1.43e+00 5.19e+01  -6.0 2.84e+02  -8.4 4.34e-01 4.87e-01h  1
  76 -2.2691170e-01 2.79e+00 7.98e+00  -6.0 2.94e+02  -8.0 1.00e+00 8.16e-01h  1
  77 -2.2817542e-01 1.43e+00 6.85e+00  -6.0 4.51e+02  -8.4 1.64e-01 4.19e-01h  1
  78 -2.2941261e-01 4.58e-01 9.99e+00  -6.0 1.21e+02  -8.0 6.10e-01 1.00e+00h  1
  79 -2.2961059e-01 4.32e-01 2.63e+01  -6.0 1.68e+02  -7.6 8.28e-01 2.99e-01h  1
iter    objective    inf_pr   inf_du lg(mu)  ||d||  lg(rg) alpha_du alpha_pr  ls
  80 -2.3028889e-01 2.40e-01 3.43e+00  -6.0 1.18e+02  -8.1 1.00e+00 8.70e-01h  1
  81 -2.3088080e-01 7.15e-01 5.19e+02  -6.0 3.81e+02  -8.5 1.00e+00 3.00e-01h  1
  82 -2.3208035e-01 7.09e-01 5.01e+02  -6.0 1.33e+03  -9.0 5.42e-01 2.65e-01h  1
  83 -2.3338597e-01 5.67e-01 4.38e+02  -6.0 3.96e+02  -8.6 1.00e+00 6.12e-01h  1
  84 -2.3392329e-01 6.23e-01 1.28e+03  -6.0 9.52e+02  -9.1 5.04e-01 1.40e-01h  1
  85 -2.3684837e-01 7.99e+00 9.13e+02  -6.0 6.37e+03  -9.5 1.73e-02 3.46e-01h  1
  86 -2.3720961e-01 5.70e+00 3.51e+04  -6.0 1.03e+02  -6.4 1.16e-02 3.48e-01h  1
  87 -2.3777714e-01 3.21e+00 3.32e+04  -6.0 5.59e+01  -6.9 4.92e-02 5.32e-01h  1
  88 -2.3790940e-01 2.33e+00 2.37e+04  -6.0 2.07e+01  -6.5 1.20e-02 2.86e-01h  1
  89 -2.3801960e-01 9.52e-01 8.72e+03  -6.0 2.05e+01  -5.1 4.70e-01 6.32e-01f  1
iter    objective    inf_pr   inf_du lg(mu)  ||d||  lg(rg) alpha_du alpha_pr  ls
  90 -2.3818424e-01 2.04e-01 7.10e+00  -6.0 1.76e+00  -5.6 8.66e-01 1.00e+00h  1
  91 -2.3821800e-01 2.56e-03 1.07e-01  -6.0 1.97e+00  -6.1 1.00e+00 1.00e+00h  1
  92 -2.3823126e-01 8.65e-04 1.03e-02  -6.0 1.47e+00  -5.7 1.00e+00 1.00e+00h  1
  93 -2.3827239e-01 3.89e-01 3.88e-01  -6.0 7.78e+00  -6.1 1.00e+00 1.00e+00h  1
  94 -2.3830496e-01 2.50e-01 4.39e+00  -6.0 2.95e+00  -5.7 1.00e+00 4.33e-01h  1
  95 -2.3836147e-01 5.34e-01 4.65e-01  -6.0 3.82e+00  -6.2 1.00e+00 1.00e+00h  1
  96 -2.3843562e-01 1.28e+00 3.99e+00  -6.0 8.19e+00  -6.7 1.00e+00 6.44e-01h  1
  97 -2.3869748e-01 6.31e+00 8.72e+00  -6.0 2.15e+01  -7.1 1.00e+00 1.00e+00h  1
  98 -2.3883218e-01 4.86e+00 3.78e+01  -6.0 7.05e+01  -7.6 1.00e+00 2.51e-01h  1
  99 -2.3994488e-01 2.44e+00 9.58e+01  -6.0 2.66e+02  -8.1 8.85e-01 7.17e-01h  1
iter    objective    inf_pr   inf_du lg(mu)  ||d||  lg(rg) alpha_du alpha_pr  ls
 100 -2.4036668e-01 6.32e+00 6.55e+01  -6.0 2.70e+02  -8.6 4.17e-01 1.87e-01h  1
 101 -2.4081830e-01 5.67e+00 1.10e+02  -6.0 5.98e+02  -9.0 3.35e-01 1.18e-01h  1
 102 -2.4102212e-01 7.10e+00 1.03e+02  -6.0 3.13e+03  -9.5 8.05e-02 3.15e-02h  1
 103 -2.4153914e-01 8.63e+00 9.92e+01  -6.0 6.65e+02  -9.1 3.99e-01 1.79e-01h  1
 104 -2.4456994e-01 4.56e+00 1.35e+02  -6.0 1.43e+03  -9.6 2.36e-01 4.73e-01h  1
 105 -2.4567976e-01 3.50e+00 9.77e+01  -6.0 2.50e+03 -10.1 2.84e-01 2.51e-01h  1
 106 -2.4648265e-01 2.03e+00 4.99e+01  -6.0 1.30e+03  -9.6 5.24e-01 4.25e-01h  1
 107 -2.4664852e-01 1.33e+00 3.64e+01  -6.0 6.40e+02  -9.2 1.17e-01 3.47e-01h  1
 108 -2.4695480e-01 1.33e+00 2.64e+01  -6.0 1.36e+03  -9.7 2.51e-01 2.91e-01h  1
 109 -2.4760751e-01 1.58e+01 2.93e+01  -6.0 1.27e+04 -10.2 1.62e-01 1.70e-01h  1
iter    objective    inf_pr   inf_du lg(mu)  ||d||  lg(rg) alpha_du alpha_pr  ls
 110 -2.4799313e-01 3.55e+01 2.69e+01  -6.0 1.94e+04    -  1.03e-01 8.28e-02h  1
 111 -2.4817996e-01 2.62e+01 2.00e+01  -6.0 2.87e+02  -8.8 1.66e-01 2.62e-01h  1
 112 -2.4892941e-01 1.25e+01 2.26e+01  -6.0 1.08e+03  -9.3 7.04e-01 5.24e-01h  1
 113 -2.4978549e-01 3.33e+00 1.27e+01  -6.0 3.90e+02  -8.9 5.96e-01 1.00e+00h  1
 114 -2.4979302e-01 3.04e+00 1.06e+01  -6.0 3.34e+01  -7.5 2.89e-01 8.63e-02h  1
 115 -2.4987582e-01 1.24e+00 3.17e+00  -6.0 5.45e+01  -8.0 1.00e+00 6.00e-01h  1
 116 -2.5021722e-01 6.37e-01 1.51e+00  -6.0 1.72e+02  -8.5 1.00e+00 1.00e+00h  1
 117 -2.5153620e-01 9.40e+00 2.23e+01  -6.0 6.64e+02  -9.0 1.28e-01 1.00e+00h  1
 118 -2.5232254e-01 1.11e+01 2.67e+01  -6.0 3.71e+03  -9.5 1.03e-01 9.02e-02h  1
 119 -2.5479188e-01 1.83e+01 5.07e+01  -6.0 8.90e+02  -9.0 2.56e-01 1.00e+00h  1
iter    objective    inf_pr   inf_du lg(mu)  ||d||  lg(rg) alpha_du alpha_pr  ls
 120 -2.5484963e-01 1.78e+01 4.93e+01  -6.0 7.27e+02  -9.5 3.76e-02 2.79e-02h  1
 121 -2.5582869e-01 8.41e+00 2.26e+01  -6.0 1.32e+03 -10.0 4.64e-01 5.41e-01f  1
 122 -2.5648758e-01 4.70e+00 1.25e+01  -6.0 2.04e+03 -10.5 3.43e-01 4.72e-01h  1
 123 -2.5695216e-01 1.85e+01 1.36e+01  -6.0 4.47e+03 -10.9 4.05e-01 5.68e-01h  1
 124 -2.5698021e-01 1.41e+01 8.68e+00  -6.0 8.73e+02 -10.5 6.24e-01 2.43e-01h  1
 125 -2.5699626e-01 7.69e+00 4.20e+00  -6.0 9.69e+02 -10.1 4.39e-01 5.17e-01h  1
 126 -2.5703628e-01 7.50e+00 2.70e+00  -6.0 1.34e+03  -9.7 4.37e-01 3.63e-01h  1
 127 -2.5716240e-01 3.97e+00 3.15e+00  -6.0 5.28e+02 -10.1 5.16e-01 5.85e-01h  1
 128 -2.5725444e-01 3.36e+00 2.70e+00  -6.0 5.24e+02  -8.8 3.88e-01 5.42e-01h  1
 129 -2.5725279e-01 3.26e+00 6.24e+00  -6.0 1.14e+03  -7.5 2.75e-01 3.42e-02h  1
iter    objective    inf_pr   inf_du lg(mu)  ||d||  lg(rg) alpha_du alpha_pr  ls
 130 -2.5727974e-01 5.64e-01 7.85e-01  -6.0 1.67e+02  -8.0 7.52e-01 1.00e+00h  1
 131 -2.5727529e-01 9.24e-01 5.81e+00  -6.0 4.86e+02  -8.4 1.00e+00 3.18e-01h  2
 132 -2.5727288e-01 5.61e-01 1.23e+01  -6.0 7.65e+02  -8.9 1.00e+00 1.31e-01h  2
 133 -2.5726403e-01 2.52e+00 1.07e+01  -6.0 9.35e+02  -9.4 1.00e+00 4.80e-01H  1
 134r-2.5726403e-01 2.52e+00 9.99e+02   0.1 0.00e+00  -9.9 0.00e+00 3.45e-07R  6
 135r-2.5706511e-01 2.51e+00 9.99e+02   0.1 4.16e+06    -  1.34e-06 1.80e-06f  1
 136 -2.5708539e-01 2.46e+00 4.85e+02  -6.0 4.76e+03    -  8.43e-01 2.38e-02h  4
 137 -2.5710980e-01 2.39e+00 4.61e+02  -6.0 1.90e+03    -  6.12e-02 4.61e-02h  3
 138 -2.5716969e-01 2.21e+00 3.81e+02  -6.0 8.01e+02    -  3.74e-01 1.12e-01h  2
 139 -2.5722332e-01 2.04e+00 3.30e+02  -6.0 7.38e+02    -  1.68e-01 1.22e-01h  1
iter    objective    inf_pr   inf_du lg(mu)  ||d||  lg(rg) alpha_du alpha_pr  ls
 140 -2.5723529e-01 1.97e+00 2.95e+02  -6.0 1.89e+03    -  2.52e-01 3.35e-02h  3
 141 -2.5726827e-01 1.72e+00 2.44e+02  -6.0 7.16e+02    -  2.61e-01 1.28e-01h  3
 142 -2.5727663e-01 1.64e+00 2.13e+02  -6.0 1.26e+03    -  2.64e-01 4.64e-02h  4
 143 -2.5729392e-01 1.45e+00 1.73e+02  -6.0 1.03e+03    -  5.62e-01 1.15e-01h  3
 144 -2.5730314e-01 1.31e+00 1.71e+02  -6.0 8.58e+02    -  4.07e-01 9.19e-02h  3
 145 -2.5730983e-01 1.18e+00 1.84e+02  -6.0 6.46e+02    -  9.16e-01 1.03e-01h  3
 146 -2.5732581e-01 1.08e+00 3.58e+03  -6.0 3.08e+02    -  5.08e-01 7.11e-01H  1
 147 -2.5732634e-01 1.05e+00 3.24e+03  -6.0 8.34e+02  -9.4 2.57e-02 9.55e-02h  3
 148 -2.5732634e-01 1.03e+00 3.18e+03  -6.0 7.91e+02  -9.9 1.00e+00 2.01e-02h  4
 149 -2.5732539e-01 1.05e+00 2.85e+03  -6.0 1.02e+03    -  7.47e-01 1.04e-01h  3
iter    objective    inf_pr   inf_du lg(mu)  ||d||  lg(rg) alpha_du alpha_pr  ls
 150 -2.5732146e-01 5.50e-01 1.41e+03  -6.0 3.44e+02    -  1.00e+00 5.06e-01h  1
 151 -2.5732111e-01 5.74e-01 1.35e+03  -6.0 1.45e+03    -  1.00e+00 4.39e-02h  4
 152 -2.5732000e-01 6.50e-01 1.18e+03  -6.0 9.13e+02    -  1.00e+00 1.23e-01h  3
 153 -2.5731885e-01 5.85e-01 9.14e+02  -6.0 6.38e+02    -  8.09e-01 2.26e-01h  3
 154 -2.5731846e-01 5.95e-01 8.02e+02  -6.0 8.83e+02    -  1.00e+00 1.23e-01h  3
 155 -2.5731815e-01 6.25e-01 7.38e+02  -6.0 1.02e+03    -  1.00e+00 7.96e-02h  3
 156 -2.5731579e-01 3.28e-01 2.98e-02  -6.0 1.69e+02    -  1.00e+00 1.00e+00h  1
 157 -2.5731627e-01 9.81e-02 1.77e-03  -6.0 9.22e+01    -  1.00e+00 1.00e+00h  1
 158 -2.5731627e-01 1.85e-04 2.56e-06  -6.0 4.10e+00    -  1.00e+00 1.00e+00h  1
 159 -2.5731627e-01 8.91e-10 2.23e-11  -6.0 9.12e-03    -  1.00e+00 1.00e+00h  1
iter    objective    inf_pr   inf_du lg(mu)  ||d||  lg(rg) alpha_du alpha_pr  ls
 160 -2.5774173e-01 1.01e+00 2.03e+01  -7.5 1.63e+03    -  1.63e-01 2.20e-01f  1
 161 -2.5803535e-01 1.85e+00 5.09e+01  -7.5 1.79e+03    -  5.45e-01 3.20e-01h  1
 162 -2.5813626e-01 1.78e+00 9.15e+01  -7.5 1.55e+03    -  4.99e-01 1.58e-01h  1
 163 -2.5836393e-01 1.87e+00 2.02e+01  -7.5 5.73e+02 -10.4 1.91e-01 4.94e-01h  1
 164 -2.5855835e-01 2.50e+00 6.27e+00  -7.5 1.33e+03    -  6.20e-01 6.83e-01h  1
 165 -2.5858492e-01 1.05e+00 1.56e+01  -7.5 3.27e+02 -10.9 1.00e+00 6.35e-01h  1
 166 -2.5861930e-01 5.08e-01 2.94e-01  -7.5 5.20e+02    -  8.52e-01 1.00e+00h  1
 167 -2.5863680e-01 1.06e+00 4.14e-01  -7.5 3.31e+02 -11.3 3.37e-01 7.01e-01h  1
 168 -2.5864019e-01 1.71e+00 8.20e-01  -7.5 1.55e+03 -11.8 3.41e-02 1.35e-01h  1
 169 -2.5866532e-01 1.40e+01 9.97e+00  -7.5 8.89e+02 -12.3 2.64e-02 1.00e+00f  1
iter    objective    inf_pr   inf_du lg(mu)  ||d||  lg(rg) alpha_du alpha_pr  ls
 170 -2.5865110e-01 7.08e+00 6.89e+00  -7.5 2.47e+02 -11.9 7.77e-02 5.00e-01h  2
 171 -2.5864946e-01 2.73e+00 3.49e+00  -7.5 3.24e+02    -  5.71e-01 7.71e-01h  1
 172 -2.5865288e-01 2.00e+00 2.20e+00  -7.5 3.56e+02 -10.5 1.00e+00 4.03e-01h  1
 173 -2.5866465e-01 5.25e+00 6.81e-01  -7.5 6.68e+02    -  2.61e-01 7.68e-01h  1
 174 -2.5866838e-01 6.11e+00 6.77e-01  -7.5 2.85e+03 -11.0 3.00e-06 6.37e-03H  1
 175 -2.5866259e-01 1.45e+00 2.28e-01  -7.5 3.40e+02 -11.5 2.07e-01 1.00e+00h  1
 176 -2.5866271e-01 6.31e-01 1.79e-02  -7.5 7.00e+01 -11.1 1.00e+00 5.60e-01h  1
 177 -2.5866266e-01 5.21e-01 6.18e-04  -7.5 2.07e+02 -11.6 1.00e+00 1.00e+00h  1
 178 -2.5866274e-01 2.67e+00 3.56e-03  -7.5 4.67e+02 -12.0 1.00e+00 1.00e+00h  1
 179 -2.5866294e-01 8.12e+00 7.79e-01  -7.5 3.23e+03 -12.5 7.15e-01 2.16e-01h  3
iter    objective    inf_pr   inf_du lg(mu)  ||d||  lg(rg) alpha_du alpha_pr  ls
 180 -2.5866333e-01 8.56e+00 8.07e-03  -7.5 8.13e+02 -12.1 1.00e+00 1.00e+00h  1
 181 -2.5866556e-01 6.69e+01 3.94e+00  -7.5 6.61e+03 -12.6 1.89e-02 1.00e+00H  1
 182 -2.5866516e-01 2.87e-03 6.44e-03  -7.5 8.10e+01    -  1.00e+00 1.00e+00h  1
 183 -2.5866849e-01 6.82e+00 4.35e+00  -7.5 1.83e+04 -13.0 2.50e-02 1.00e+00H  1
 184 -2.5866945e-01 5.11e+00 1.29e+00  -7.5 1.02e+03 -11.7 6.41e-01 1.00e+00H  1
 185 -2.5866944e-01 2.76e-03 8.24e-04  -7.5 7.68e+00    -  1.00e+00 1.00e+00h  1
 186 -2.5866940e-01 1.46e-02 9.20e-05  -7.5 2.94e+01    -  1.00e+00 1.00e+00h  1
 187 -2.5866940e-01 8.69e-08 2.81e-09  -7.5 8.64e-02    -  1.00e+00 1.00e+00h  1
 188 -2.5867095e-01 2.25e+00 4.81e+00  -9.0 2.00e+03    -  4.65e-01 1.83e-01h  1
 189 -2.5867420e-01 5.65e+01 7.94e-01  -9.0 3.36e+03    -  3.82e-01 5.38e-01h  1
iter    objective    inf_pr   inf_du lg(mu)  ||d||  lg(rg) alpha_du alpha_pr  ls
 190 -2.5867539e-01 3.89e+01 2.46e+01  -9.0 1.50e+03    -  3.93e-03 7.01e-01h  1
 191 -2.5867646e-01 2.20e+01 4.79e+00  -9.0 1.03e+03    -  1.19e-01 9.40e-01h  1
 192 -2.5867776e-01 3.48e+01 2.60e+00  -9.0 1.27e+03    -  4.67e-01 1.00e+00h  1
 193 -2.5867872e-01 3.56e+01 1.43e+00  -9.0 1.52e+03 -12.2 4.49e-01 6.64e-01h  1
 194 -2.5867957e-01 1.04e+02 1.35e+00  -9.0 4.08e+03    -  6.77e-02 7.38e-01h  1
 195 -2.5867981e-01 1.03e+02 1.32e+00  -9.0 2.83e+04    -  2.92e-02 6.92e-03h  1
 196 -2.5868014e-01 1.14e+02 2.03e+00  -9.0 3.80e+03    -  5.05e-02 7.02e-01h  1
 197 -2.5868038e-01 1.02e+02 1.74e+01  -9.0 3.62e+03 -12.7 6.91e-04 1.23e-01h  1
 198 -2.5868041e-01 1.02e+02 1.74e+01  -9.0 1.45e+04 -13.1 8.80e-02 3.86e-03h  1
 199 -2.5868190e-01 6.18e+01 2.70e+00  -9.0 2.17e+03    -  7.10e-02 8.92e-01h  1
iter    objective    inf_pr   inf_du lg(mu)  ||d||  lg(rg) alpha_du alpha_pr  ls
 200 -2.5868264e-01 6.32e+01 1.02e+00  -9.0 3.04e+03    -  3.64e-02 1.00e+00H  1
 201 -2.5868325e-01 1.01e+01 3.46e-01  -9.0 9.70e+02 -11.8 6.59e-01 8.41e-01h  1
 202 -2.5868500e-01 5.48e+01 8.99e-02  -9.0 1.87e+03 -12.3 7.38e-01 1.00e+00h  1
 203 -2.5868548e-01 5.20e+01 5.93e-02  -9.0 3.83e+03 -12.8 3.55e-01 1.26e-01h  1
 204 -2.5868638e-01 9.29e+01 5.18e-02  -9.0 2.05e+04 -13.2 1.26e-01 1.31e-01h  1
 205 -2.5868669e-01 7.55e+01 3.05e+00  -9.0 1.75e+03 -12.8 1.00e+00 1.90e-01h  1
 206 -2.5868851e-01 9.33e+01 1.18e+00  -9.0 4.99e+03 -13.3 4.61e-01 5.42e-01h  1
 207 -2.5868919e-01 7.27e+01 6.57e-01  -9.0 3.70e+03    -  1.70e-02 2.22e-01h  1
 208 -2.5869037e-01 5.56e+01 5.50e+00  -9.0 2.24e+03 -12.9 4.21e-02 3.87e-01h  1
 209 -2.5869045e-01 5.52e+01 5.24e+00  -9.0 1.21e+04 -13.3 2.55e-02 1.25e-02h  3
iter    objective    inf_pr   inf_du lg(mu)  ||d||  lg(rg) alpha_du alpha_pr  ls
 210 -2.5869046e-01 5.52e+01 5.06e+00  -9.0 7.07e+04 -13.8 1.32e-02 3.75e-04h  5
 211 -2.5869049e-01 5.50e+01 4.75e+00  -9.0 1.06e+04    -  2.72e-02 5.56e-03h  4
 212 -2.5869078e-01 5.12e+01 4.11e+00  -9.0 3.08e+03    -  5.50e-01 8.78e-02h  1
 213 -2.5869134e-01 4.78e+01 3.76e+02  -9.0 3.50e+03    -  5.26e-03 1.63e-01h  1
 214 -2.5869200e-01 4.04e+01 2.92e+02  -9.0 2.04e+03    -  4.98e-02 2.22e-01h  1
 215 -2.5869239e-01 3.61e+01 2.52e+02  -9.0 2.06e+03    -  1.02e-02 1.39e-01h  1
 216 -2.5869315e-01 3.09e+01 1.85e+02  -9.0 1.97e+03    -  8.67e-01 2.64e-01h  1
 217 -2.5869422e-01 2.83e+01 1.13e+02  -9.0 1.95e+03    -  4.38e-02 3.92e-01h  1
 218 -2.5869584e-01 3.41e+01 8.12e+01  -9.0 1.87e+03    -  6.84e-02 6.36e-01h  1
 219 -2.5869587e-01 3.36e+01 7.99e+01  -9.0 1.73e+03    -  8.71e-03 1.43e-02h  1
iter    objective    inf_pr   inf_du lg(mu)  ||d||  lg(rg) alpha_du alpha_pr  ls
 220 -2.5869595e-01 3.25e+01 8.59e+01  -9.0 1.73e+03    -  3.17e-01 3.65e-02h  1
 221 -2.5869738e-01 4.32e+01 1.66e+04  -9.0 1.73e+03    -  4.55e-04 8.40e-01h  1
 222 -2.5869846e-01 4.84e+01 1.82e+03  -9.0 1.57e+03    -  4.43e-03 1.00e+00h  1
 223 -2.5869851e-01 4.80e+01 1.81e+03  -9.0 1.77e+04    -  7.40e-02 7.26e-03h  3
 224 -2.5869881e-01 4.22e+01 1.50e+03  -9.0 3.09e+03    -  1.63e-01 1.69e-01h  1
 225 -2.5869887e-01 4.06e+01 1.44e+03  -9.0 3.18e+03    -  2.68e-01 3.96e-02h  1
 226 -2.5869929e-01 3.26e+01 7.65e+02  -9.0 1.52e+03    -  1.79e-01 4.70e-01h  1
 227 -2.5869941e-01 2.89e+01 6.55e+02  -9.0 1.61e+03    -  2.66e-02 1.44e-01h  1
 228 -2.5869949e-01 2.65e+01 5.90e+02  -9.0 1.53e+03    -  1.84e-01 9.87e-02h  1
 229 -2.5869958e-01 2.33e+01 4.22e+02  -9.0 1.53e+03    -  5.36e-03 2.85e-01h  1
iter    objective    inf_pr   inf_du lg(mu)  ||d||  lg(rg) alpha_du alpha_pr  ls
 230 -2.5869977e-01 2.47e+01 1.72e+02  -9.0 1.36e+03    -  6.40e-02 5.91e-01h  1
 231 -2.5869946e-01 2.62e+01 7.96e+01  -9.0 1.48e+03    -  3.11e-02 5.38e-01h  1
 232 -2.5869933e-01 9.23e+00 1.51e+01  -9.0 6.60e+02    -  8.34e-04 1.00e+00h  1
 233 -2.5869942e-01 4.34e+00 1.01e-03  -9.0 4.36e+02    -  1.00e+00 1.00e+00h  1
 234 -2.5869969e-01 2.63e+01 3.52e-02  -9.0 3.20e+03    -  5.20e-01 3.19e-01h  1
 235 -2.5869966e-01 3.29e-02 1.54e-01  -9.0 6.33e+01    -  5.95e-01 1.00e+00h  1
 236 -2.5869966e-01 5.89e-03 1.61e-02  -9.0 4.06e+01    -  1.00e+00 9.11e-01H  1
 237 -2.5869966e-01 1.40e-03 2.25e-07  -9.0 7.63e+00    -  1.00e+00 1.00e+00f  1
 238 -2.5869966e-01 4.99e-08 6.25e-12  -9.0 4.42e-02    -  1.00e+00 1.00e+00h  1
 239 -2.5869966e-01 2.86e-10 3.66e-14  -9.0 2.59e-06    -  1.00e+00 1.00e+00h  1

Number of Iterations....: 239

                                   (scaled)                 (unscaled)
Objective...............:  -2.5869965729603334e-01   -2.5869965729603334e-01
Dual infeasibility......:   3.6649458996684869e-14    3.6649458996684869e-14
Constraint violation....:   2.8555658564740488e-10    2.8555658564740488e-10
Complementarity.........:   9.0909092603760005e-10    9.0909092603760005e-10
Overall NLP error.......:   9.0909092603760005e-10    9.0909092603760005e-10


Number of objective function evaluations             = 388
Number of objective gradient evaluations             = 240
Number of equality constraint evaluations            = 388
Number of inequality constraint evaluations          = 389
Number of equality constraint Jacobian evaluations   = 242
Number of inequality constraint Jacobian evaluations = 242
Number of Lagrangian Hessian evaluations             = 239
Total CPU secs in IPOPT (w/o function evaluations)   =    398.007
Total CPU secs in NLP function evaluations           =      8.957

EXIT: Optimal Solution Found.
